decision_x1=[0,7];
decision_x2=[0,7];
decision_x3=[0,7];
decision_x4=[0,7];
decision_x5=[0,7];
decision_x6=[0,7];
decision_x7=[0,7];
decision_x8=[0,7];
decision_x9=[0,7];
decision_x10=[0,7];
decision_x11=[0,7];
decision_x12=[0,7];
decision_x13=[0,7];
decision_x14=[0,7];
decision_x15=[0,7];
decision_x16=[0,7];
decision_x17=[0,7];
decision_x18=[0,7];
random_y1=[0,7];
random_y2=[0,7];
random_y3=[0,7];
random_y4=[0,7];
random_y5=[0,7];
random_y6=[0,7];
random_y7=[0,7];
random_y8=[0,7];
constraint_x2_x1=[
0,0,3.4|
0,1,9.8|
0,2,3.7|
0,3,5.1|
0,4,9.1|
0,5,2.8|
0,6,8.9|
0,7,7.7|
1,0,4.5|
1,1,9.7|
1,2,4.8|
1,3,0.44|
1,4,5.5|
1,5,4|
1,6,4.6|
1,7,4.3|
2,0,0.94|
2,1,2.6|
2,2,8.2|
2,3,4.7|
2,4,6|
2,5,1.7|
2,6,6.5|
2,7,0.0045|
3,0,8.9|
3,1,9.3|
3,2,6.5|
3,3,6|
3,4,1.7|
3,5,2.6|
3,6,7|
3,7,2.2|
4,0,2.9|
4,1,7.6|
4,2,8.3|
4,3,6.7|
4,4,9.4|
4,5,8.2|
4,6,8.3|
4,7,0.12|
5,0,1.5|
5,1,5|
5,2,5.7|
5,3,6.6|
5,4,7.7|
5,5,0.1|
5,6,7.2|
5,7,3.2|
6,0,8|
6,1,1.1|
6,2,7.8|
6,3,9.6|
6,4,3|
6,5,7.6|
6,6,6.3|
6,7,9.9|
7,0,9.6|
7,1,6.8|
7,2,0.22|
7,3,2.2|
7,4,5.5|
7,5,8.7|
7,6,8.8|
7,7,9|
];
constraint_x3_x2=[
0,0,4.1|
0,1,2.7|
0,2,8.1|
0,3,4.4|
0,4,6.8|
0,5,9.5|
0,6,10|
0,7,0.07|
1,0,2.4|
1,1,8.2|
1,2,6.1|
1,3,3.3|
1,4,7|
1,5,7.3|
1,6,5|
1,7,1.5|
2,0,8.6|
2,1,8.1|
2,2,8.7|
2,3,9.6|
2,4,5.9|
2,5,0.4|
2,6,5.5|
2,7,7.8|
3,0,5.5|
3,1,9.4|
3,2,7.2|
3,3,1.4|
3,4,2.9|
3,5,1.5|
3,6,5|
3,7,8.1|
4,0,8.4|
4,1,3.8|
4,2,4|
4,3,5.4|
4,4,7.8|
4,5,4.6|
4,6,7.4|
4,7,4.3|
5,0,2.7|
5,1,1.9|
5,2,2.5|
5,3,7.5|
5,4,0.66|
5,5,9.4|
5,6,0.19|
5,7,4.9|
6,0,4.7|
6,1,0.006|
6,2,1.9|
6,3,9.9|
6,4,7.6|
6,5,2|
6,6,3.8|
6,7,6.4|
7,0,0.48|
7,1,5.8|
7,2,7.6|
7,3,7|
7,4,8.3|
7,5,7.1|
7,6,7.3|
7,7,3.5|
];
constraint_x4_x3=[
0,0,3.2|
0,1,8.2|
0,2,6.3|
0,3,0.96|
0,4,0.25|
0,5,7.8|
0,6,9.7|
0,7,7.3|
1,0,4.7|
1,1,7.6|
1,2,0.84|
1,3,0.37|
1,4,1.3|
1,5,9.9|
1,6,2.4|
1,7,2.1|
2,0,0.63|
2,1,3.3|
2,2,9.4|
2,3,8.5|
2,4,6.2|
2,5,3.9|
2,6,1.7|
2,7,9.3|
3,0,2|
3,1,8|
3,2,6.8|
3,3,2.8|
3,4,7|
3,5,4.5|
3,6,5.7|
3,7,6.3|
4,0,4.4|
4,1,8.2|
4,2,9.8|
4,3,3.4|
4,4,2.6|
4,5,7.9|
4,6,4.7|
4,7,0.65|
5,0,6.4|
5,1,4.9|
5,2,8.7|
5,3,0.12|
5,4,1.4|
5,5,5.2|
5,6,7.5|
5,7,7.1|
6,0,4.1|
6,1,0.65|
6,2,8.9|
6,3,9|
6,4,5.3|
6,5,6.1|
6,6,4.2|
6,7,9.8|
7,0,4.4|
7,1,2.2|
7,2,2.7|
7,3,7.1|
7,4,4.8|
7,5,7.9|
7,6,4.9|
7,7,0.027|
];
constraint_x5_x1=[
0,0,3.6|
0,1,8.1|
0,2,6.6|
0,3,7.3|
0,4,7|
0,5,9.2|
0,6,5.3|
0,7,1.1|
1,0,5.6|
1,1,4.8|
1,2,7.1|
1,3,3.4|
1,4,1.5|
1,5,5.8|
1,6,3.9|
1,7,9.1|
2,0,9|
2,1,1.3|
2,2,0.56|
2,3,4.9|
2,4,7.5|
2,5,7|
2,6,7|
2,7,2.5|
3,0,6.3|
3,1,9.1|
3,2,5.9|
3,3,7.9|
3,4,7.7|
3,5,0.023|
3,6,7.9|
3,7,8.3|
4,0,1.6|
4,1,6.7|
4,2,10|
4,3,4.4|
4,4,4.5|
4,5,1.4|
4,6,0.92|
4,7,7.9|
5,0,3.5|
5,1,3.9|
5,2,9.1|
5,3,8.7|
5,4,7.7|
5,5,0.29|
5,6,6|
5,7,9.1|
6,0,8.7|
6,1,8.5|
6,2,3.2|
6,3,8.9|
6,4,9.1|
6,5,5.5|
6,6,8.6|
6,7,2|
7,0,9.6|
7,1,6.2|
7,2,8.4|
7,3,0.055|
7,4,0.28|
7,5,4.2|
7,6,9.1|
7,7,3|
];
constraint_x6_x2=[
0,0,8.8|
0,1,5.3|
0,2,3.7|
0,3,3.4|
0,4,1.6|
0,5,0.65|
0,6,0.13|
0,7,8.6|
1,0,4.1|
1,1,1.1|
1,2,6.4|
1,3,7.6|
1,4,5.9|
1,5,0.98|
1,6,8.2|
1,7,3.2|
2,0,7.3|
2,1,3.8|
2,2,8.1|
2,3,2.2|
2,4,8.5|
2,5,7.2|
2,6,3.9|
2,7,3.8|
3,0,0.67|
3,1,9.9|
3,2,7|
3,3,8|
3,4,5|
3,5,0.031|
3,6,8.7|
3,7,10|
4,0,6|
4,1,4.1|
4,2,2.1|
4,3,0.6|
4,4,6.2|
4,5,5.4|
4,6,1.3|
4,7,5.1|
5,0,3.2|
5,1,4.9|
5,2,9.9|
5,3,2.7|
5,4,4.2|
5,5,8.8|
5,6,0.13|
5,7,9.8|
6,0,3.6|
6,1,5.7|
6,2,4.4|
6,3,4.2|
6,4,4.3|
6,5,1.7|
6,6,5.6|
6,7,3.8|
7,0,9.9|
7,1,1.8|
7,2,0.89|
7,3,3.5|
7,4,2.8|
7,5,3.5|
7,6,5.4|
7,7,7.3|
];
constraint_x6_x5=[
0,0,7|
0,1,3.3|
0,2,9.9|
0,3,2.4|
0,4,4.7|
0,5,0.45|
0,6,1.8|
0,7,6.4|
1,0,7.4|
1,1,0.63|
1,2,9.1|
1,3,5.5|
1,4,4.2|
1,5,1.1|
1,6,6.9|
1,7,9.5|
2,0,3.2|
2,1,7.2|
2,2,8.9|
2,3,2.9|
2,4,3|
2,5,7.4|
2,6,6.1|
2,7,3.3|
3,0,4.7|
3,1,4.8|
3,2,7.9|
3,3,7.6|
3,4,2.5|
3,5,6.6|
3,6,5.8|
3,7,9|
4,0,9.2|
4,1,3.6|
4,2,9.8|
4,3,1.8|
4,4,0.73|
4,5,0.86|
4,6,6.5|
4,7,7|
5,0,6.5|
5,1,6.2|
5,2,4.6|
5,3,6.4|
5,4,5.3|
5,5,6.5|
5,6,2.6|
5,7,6.3|
6,0,9.6|
6,1,6.1|
6,2,2.3|
6,3,8.4|
6,4,6.2|
6,5,6.5|
6,6,7.1|
6,7,1.6|
7,0,2.6|
7,1,8.6|
7,2,9.8|
7,3,0.14|
7,4,4.7|
7,5,0.82|
7,6,2.5|
7,7,5|
];
constraint_x7_x3=[
0,0,9.6|
0,1,0.35|
0,2,8.6|
0,3,2.5|
0,4,0.082|
0,5,10|
0,6,5.7|
0,7,1.8|
1,0,7|
1,1,1.9|
1,2,5|
1,3,9.8|
1,4,5.4|
1,5,9.3|
1,6,9|
1,7,2.2|
2,0,7.1|
2,1,2.5|
2,2,4.8|
2,3,5|
2,4,0.86|
2,5,5.6|
2,6,10|
2,7,8.4|
3,0,2.5|
3,1,3.6|
3,2,1.3|
3,3,4|
3,4,6.8|
3,5,1.5|
3,6,6.3|
3,7,4|
4,0,5.5|
4,1,8.4|
4,2,1.4|
4,3,3.1|
4,4,2.6|
4,5,7.6|
4,6,9.4|
4,7,9|
5,0,8.4|
5,1,9.5|
5,2,2.3|
5,3,2.2|
5,4,0.78|
5,5,5.6|
5,6,5.2|
5,7,5.3|
6,0,5.2|
6,1,4.5|
6,2,7.8|
6,3,3.1|
6,4,2|
6,5,2.5|
6,6,3.6|
6,7,6.4|
7,0,3.4|
7,1,9.1|
7,2,8.3|
7,3,7.2|
7,4,8.1|
7,5,6.8|
7,6,7.6|
7,7,5.9|
];
constraint_x7_x6=[
0,0,6.1|
0,1,9|
0,2,2.3|
0,3,4.1|
0,4,3.4|
0,5,3.5|
0,6,6|
0,7,8.6|
1,0,1.3|
1,1,7.8|
1,2,2.8|
1,3,6.9|
1,4,9.7|
1,5,4.4|
1,6,6.6|
1,7,7.2|
2,0,7.7|
2,1,7.2|
2,2,0.32|
2,3,0.49|
2,4,4.4|
2,5,0.39|
2,6,7.3|
2,7,8.2|
3,0,7.5|
3,1,5.4|
3,2,7|
3,3,6.9|
3,4,1.5|
3,5,6.8|
3,6,1.7|
3,7,9.7|
4,0,0.78|
4,1,2.6|
4,2,8.2|
4,3,2.7|
4,4,0.7|
4,5,2.6|
4,6,8.3|
4,7,4.2|
5,0,5|
5,1,1|
5,2,3|
5,3,6.8|
5,4,1.1|
5,5,7.8|
5,6,5.7|
5,7,9.8|
6,0,4.9|
6,1,3|
6,2,5.6|
6,3,8.4|
6,4,6.9|
6,5,5.6|
6,6,5|
6,7,2.1|
7,0,6.4|
7,1,8.7|
7,2,1.2|
7,3,7|
7,4,5.7|
7,5,1.8|
7,6,4.9|
7,7,5.5|
];
constraint_x8_x4=[
0,0,3.4|
0,1,6.4|
0,2,0.14|
0,3,0.47|
0,4,0.34|
0,5,2.7|
0,6,7.6|
0,7,2.5|
1,0,5.1|
1,1,0.43|
1,2,2|
1,3,7.5|
1,4,8.6|
1,5,4.4|
1,6,10|
1,7,2.7|
2,0,7|
2,1,2.2|
2,2,3.6|
2,3,3.2|
2,4,4.5|
2,5,5.8|
2,6,9.4|
2,7,9.2|
3,0,0.35|
3,1,4.3|
3,2,7|
3,3,1.5|
3,4,2.9|
3,5,7.3|
3,6,7.7|
3,7,9.9|
4,0,1.7|
4,1,9|
4,2,4.7|
4,3,2.5|
4,4,2.2|
4,5,3.3|
4,6,1.1|
4,7,6.6|
5,0,1.3|
5,1,0.2|
5,2,3.4|
5,3,2.6|
5,4,10|
5,5,1.8|
5,6,2.7|
5,7,6.7|
6,0,3.2|
6,1,6|
6,2,4.7|
6,3,7.9|
6,4,6.4|
6,5,4.6|
6,6,3.6|
6,7,3.7|
7,0,3.2|
7,1,8|
7,2,9.9|
7,3,5.7|
7,4,1.9|
7,5,4.3|
7,6,1.8|
7,7,7|
];
constraint_x8_x7=[
0,0,9.1|
0,1,4.2|
0,2,5.8|
0,3,6.6|
0,4,7.1|
0,5,3.7|
0,6,9.5|
0,7,8.1|
1,0,9.2|
1,1,6|
1,2,9.6|
1,3,9.5|
1,4,3.9|
1,5,5.6|
1,6,4.5|
1,7,6.7|
2,0,1.6|
2,1,10|
2,2,7.4|
2,3,7.7|
2,4,1.8|
2,5,6.8|
2,6,0.016|
2,7,1.6|
3,0,5.1|
3,1,4.8|
3,2,7.6|
3,3,3.1|
3,4,7.7|
3,5,0.59|
3,6,3.9|
3,7,0.25|
4,0,10|
4,1,8.5|
4,2,7.8|
4,3,3.9|
4,4,7.3|
4,5,6.7|
4,6,0.031|
4,7,7.5|
5,0,5|
5,1,7.8|
5,2,6|
5,3,8.7|
5,4,5.1|
5,5,5.1|
5,6,5.5|
5,7,5.6|
6,0,9.5|
6,1,1.6|
6,2,0.23|
6,3,4.7|
6,4,9.5|
6,5,4.4|
6,6,8.2|
6,7,7.7|
7,0,7.5|
7,1,3.7|
7,2,6.8|
7,3,1|
7,4,8.7|
7,5,0.6|
7,6,2.1|
7,7,6.9|
];
constraint_x9_x5=[
0,0,1.4|
0,1,4.4|
0,2,2.7|
0,3,0.92|
0,4,2.4|
0,5,4.8|
0,6,1.8|
0,7,3.4|
1,0,5.2|
1,1,5.5|
1,2,6.5|
1,3,2.3|
1,4,5|
1,5,10|
1,6,1.5|
1,7,6.5|
2,0,6.5|
2,1,6.3|
2,2,8.6|
2,3,7.6|
2,4,9|
2,5,7.8|
2,6,2.1|
2,7,8|
3,0,2.3|
3,1,8.1|
3,2,7.5|
3,3,4.8|
3,4,0.58|
3,5,1.8|
3,6,3|
3,7,6.9|
4,0,5|
4,1,9.1|
4,2,6.5|
4,3,3.7|
4,4,9.8|
4,5,3.7|
4,6,2.3|
4,7,1.1|
5,0,4.9|
5,1,8.2|
5,2,3.5|
5,3,5.7|
5,4,0.11|
5,5,5.5|
5,6,7.2|
5,7,3.5|
6,0,8|
6,1,1.4|
6,2,6.4|
6,3,3|
6,4,5.2|
6,5,3.2|
6,6,5.4|
6,7,1.8|
7,0,2.9|
7,1,5.8|
7,2,4.5|
7,3,7.9|
7,4,3.8|
7,5,2.4|
7,6,0.85|
7,7,2.6|
];
constraint_x10_x6=[
0,0,4.9|
0,1,10|
0,2,3.1|
0,3,9.9|
0,4,4.5|
0,5,5.7|
0,6,9.2|
0,7,1.3|
1,0,1.4|
1,1,3.2|
1,2,5.1|
1,3,0.06|
1,4,5|
1,5,8.9|
1,6,8.2|
1,7,7|
2,0,5.5|
2,1,7.4|
2,2,3.6|
2,3,7.7|
2,4,0.25|
2,5,4.3|
2,6,6.3|
2,7,4.4|
3,0,6.3|
3,1,4.1|
3,2,6.7|
3,3,5.9|
3,4,3.6|
3,5,9.1|
3,6,2.5|
3,7,6.4|
4,0,8.1|
4,1,7.9|
4,2,5.3|
4,3,4.4|
4,4,0.45|
4,5,2.5|
4,6,2.3|
4,7,6.4|
5,0,6|
5,1,4.3|
5,2,9.2|
5,3,8|
5,4,4.9|
5,5,7.8|
5,6,8.7|
5,7,8.4|
6,0,6|
6,1,3.8|
6,2,9.8|
6,3,6.3|
6,4,1.4|
6,5,5|
6,6,4.9|
6,7,2.3|
7,0,5.9|
7,1,2.3|
7,2,5.2|
7,3,4.9|
7,4,0.11|
7,5,2.2|
7,6,8.9|
7,7,2.9|
];
constraint_x10_x9=[
0,0,3.7|
0,1,8|
0,2,6.5|
0,3,4.2|
0,4,5.4|
0,5,3.6|
0,6,9.7|
0,7,4.1|
1,0,1.2|
1,1,3.8|
1,2,8.4|
1,3,2.7|
1,4,8.9|
1,5,9.1|
1,6,4.5|
1,7,7.6|
2,0,6.1|
2,1,3.3|
2,2,8|
2,3,0.69|
2,4,1.8|
2,5,0.75|
2,6,2.5|
2,7,6.2|
3,0,8.8|
3,1,1.6|
3,2,8|
3,3,0.31|
3,4,9.7|
3,5,7.4|
3,6,4.9|
3,7,5.3|
4,0,1.9|
4,1,7.2|
4,2,3.7|
4,3,3|
4,4,4.4|
4,5,0.26|
4,6,9.2|
4,7,6.3|
5,0,1.9|
5,1,1.8|
5,2,2.2|
5,3,2.5|
5,4,4.3|
5,5,9.8|
5,6,6|
5,7,3.3|
6,0,4.1|
6,1,4.7|
6,2,6.5|
6,3,5.6|
6,4,2.8|
6,5,0.77|
6,6,8.3|
6,7,2.8|
7,0,1.4|
7,1,4.3|
7,2,0.88|
7,3,4.3|
7,4,9|
7,5,8.8|
7,6,3.5|
7,7,3|
];
constraint_x11_x7=[
0,0,4.3|
0,1,1.5|
0,2,5.3|
0,3,10|
0,4,0.48|
0,5,1.7|
0,6,0.77|
0,7,2.4|
1,0,8.6|
1,1,3.9|
1,2,9.2|
1,3,9.6|
1,4,1.5|
1,5,9.9|
1,6,0.12|
1,7,0.029|
2,0,4.2|
2,1,1.1|
2,2,9.5|
2,3,1.1|
2,4,7.4|
2,5,4.4|
2,6,0.85|
2,7,6.5|
3,0,8.8|
3,1,6.5|
3,2,0.82|
3,3,2.3|
3,4,2.4|
3,5,9.9|
3,6,4.7|
3,7,4.7|
4,0,9.9|
4,1,2.5|
4,2,8.7|
4,3,2.5|
4,4,1.2|
4,5,6.1|
4,6,7.5|
4,7,9.9|
5,0,2.4|
5,1,1.6|
5,2,3.1|
5,3,2.2|
5,4,6.5|
5,5,0.28|
5,6,7.4|
5,7,9|
6,0,4.3|
6,1,8.2|
6,2,3.3|
6,3,4.9|
6,4,3.4|
6,5,0.15|
6,6,5.2|
6,7,8.3|
7,0,8.1|
7,1,9.2|
7,2,9.8|
7,3,9.7|
7,4,6.4|
7,5,8.1|
7,6,9.1|
7,7,1.4|
];
constraint_x11_x10=[
0,0,9|
0,1,4.1|
0,2,6.6|
0,3,2.3|
0,4,6.9|
0,5,6.1|
0,6,9.9|
0,7,2|
1,0,5.7|
1,1,1.6|
1,2,0.81|
1,3,0.64|
1,4,9.8|
1,5,7|
1,6,9.6|
1,7,2.2|
2,0,4.8|
2,1,9.1|
2,2,9.2|
2,3,0.36|
2,4,7.2|
2,5,7.6|
2,6,3.7|
2,7,0.67|
3,0,5.9|
3,1,9.1|
3,2,0.33|
3,3,6.9|
3,4,7.8|
3,5,3.2|
3,6,4.2|
3,7,2.1|
4,0,7.9|
4,1,8.3|
4,2,2.4|
4,3,3.4|
4,4,6.6|
4,5,3.2|
4,6,0.19|
4,7,2|
5,0,10|
5,1,3.2|
5,2,5.4|
5,3,0.52|
5,4,6.7|
5,5,4.9|
5,6,7.4|
5,7,9.2|
6,0,4.3|
6,1,2.9|
6,2,8.8|
6,3,4.6|
6,4,2.7|
6,5,6.4|
6,6,9.6|
6,7,2.2|
7,0,5.6|
7,1,0.24|
7,2,7.9|
7,3,2.4|
7,4,6.3|
7,5,8.7|
7,6,2.6|
7,7,5.8|
];
constraint_x12_x8=[
0,0,4.8|
0,1,1.3|
0,2,1.4|
0,3,1.5|
0,4,7.9|
0,5,7.9|
0,6,7|
0,7,0.65|
1,0,8.1|
1,1,5.1|
1,2,0.26|
1,3,4|
1,4,6.4|
1,5,1.2|
1,6,4.8|
1,7,5.2|
2,0,2.4|
2,1,6.2|
2,2,2.8|
2,3,1|
2,4,7.2|
2,5,4.5|
2,6,0.64|
2,7,2.6|
3,0,4.9|
3,1,9.3|
3,2,8.5|
3,3,2.8|
3,4,6.5|
3,5,7|
3,6,6.8|
3,7,8.1|
4,0,8.2|
4,1,3.7|
4,2,6.8|
4,3,7.7|
4,4,5.2|
4,5,9.1|
4,6,7.2|
4,7,5.7|
5,0,9.8|
5,1,4.7|
5,2,0.21|
5,3,6.4|
5,4,3|
5,5,8.1|
5,6,2.7|
5,7,3.9|
6,0,6|
6,1,3.2|
6,2,7.3|
6,3,3.4|
6,4,2.2|
6,5,7.8|
6,6,9|
6,7,6.9|
7,0,9.1|
7,1,3.7|
7,2,5.3|
7,3,0.26|
7,4,6|
7,5,9.8|
7,6,2.4|
7,7,7.1|
];
constraint_x12_x11=[
0,0,5.1|
0,1,4.1|
0,2,3.5|
0,3,8.5|
0,4,5.7|
0,5,6.4|
0,6,7|
0,7,4.6|
1,0,3.5|
1,1,6.8|
1,2,8.5|
1,3,3|
1,4,0.95|
1,5,2.1|
1,6,1.4|
1,7,6|
2,0,9.8|
2,1,6.6|
2,2,2|
2,3,1.9|
2,4,3.9|
2,5,7.3|
2,6,3|
2,7,4.7|
3,0,0.75|
3,1,9|
3,2,7.3|
3,3,4.3|
3,4,0.71|
3,5,3.6|
3,6,4.7|
3,7,5.4|
4,0,1.7|
4,1,3.5|
4,2,9.9|
4,3,8.3|
4,4,6.3|
4,5,6.7|
4,6,8.5|
4,7,0.49|
5,0,9.9|
5,1,2.8|
5,2,4.5|
5,3,8|
5,4,8.3|
5,5,2.6|
5,6,8.8|
5,7,9.2|
6,0,6.9|
6,1,4.5|
6,2,6.5|
6,3,6|
6,4,3|
6,5,8.7|
6,6,0.55|
6,7,5.6|
7,0,7|
7,1,1.9|
7,2,7.1|
7,3,6.6|
7,4,8.8|
7,5,4|
7,6,6|
7,7,6.8|
];
constraint_x13_x9=[
0,0,4.5|
0,1,2.8|
0,2,2|
0,3,9.9|
0,4,1.8|
0,5,2.2|
0,6,9.3|
0,7,9.9|
1,0,1.9|
1,1,7.1|
1,2,0.088|
1,3,6.6|
1,4,7|
1,5,3.3|
1,6,9.2|
1,7,4.9|
2,0,9.1|
2,1,6.8|
2,2,4.7|
2,3,0.026|
2,4,0.18|
2,5,9.1|
2,6,0.81|
2,7,8.3|
3,0,8.5|
3,1,3.2|
3,2,4.4|
3,3,3.8|
3,4,2.9|
3,5,7.6|
3,6,2|
3,7,3.3|
4,0,3.7|
4,1,8.8|
4,2,0.79|
4,3,5.6|
4,4,4.2|
4,5,6.2|
4,6,0.43|
4,7,9.5|
5,0,5.6|
5,1,3.9|
5,2,5.7|
5,3,4.5|
5,4,0.78|
5,5,7.1|
5,6,4.5|
5,7,1.3|
6,0,8.2|
6,1,4.9|
6,2,5|
6,3,4.6|
6,4,9.8|
6,5,4.3|
6,6,6.7|
6,7,7.3|
7,0,6.7|
7,1,7|
7,2,8|
7,3,7.2|
7,4,0.72|
7,5,1.6|
7,6,0.66|
7,7,4.2|
];
constraint_x14_x10=[
0,0,6.2|
0,1,5.2|
0,2,2.4|
0,3,8.3|
0,4,6.7|
0,5,6.7|
0,6,8|
0,7,4.9|
1,0,7.9|
1,1,6.5|
1,2,7.4|
1,3,3.9|
1,4,0.73|
1,5,5.4|
1,6,6.3|
1,7,6.5|
2,0,4.1|
2,1,5.9|
2,2,7.1|
2,3,4.6|
2,4,5.6|
2,5,5.7|
2,6,5.7|
2,7,0.63|
3,0,4.2|
3,1,3.8|
3,2,3.2|
3,3,5.3|
3,4,3.6|
3,5,3.5|
3,6,3.5|
3,7,3.3|
4,0,8.9|
4,1,9.7|
4,2,0.59|
4,3,5.4|
4,4,7.7|
4,5,3.8|
4,6,2.8|
4,7,1.9|
5,0,2.5|
5,1,5.9|
5,2,1.5|
5,3,0.88|
5,4,7|
5,5,5.5|
5,6,0.63|
5,7,4.2|
6,0,2.6|
6,1,8.5|
6,2,7.4|
6,3,5.1|
6,4,5.2|
6,5,8.1|
6,6,4.2|
6,7,7.4|
7,0,0.57|
7,1,4.9|
7,2,0.49|
7,3,7.3|
7,4,4.9|
7,5,5.6|
7,6,3.3|
7,7,4.7|
];
constraint_x15_x11=[
0,0,2.9|
0,1,4.2|
0,2,6|
0,3,7.5|
0,4,4.9|
0,5,6.9|
0,6,2.8|
0,7,6|
1,0,4.4|
1,1,3.2|
1,2,3.3|
1,3,8.7|
1,4,2.5|
1,5,7.3|
1,6,9.4|
1,7,8.9|
2,0,6.3|
2,1,5|
2,2,4|
2,3,2.6|
2,4,7.8|
2,5,3|
2,6,8.3|
2,7,3.4|
3,0,0.98|
3,1,0.77|
3,2,9.6|
3,3,8.4|
3,4,6.2|
3,5,9.8|
3,6,3.4|
3,7,2|
4,0,3.4|
4,1,2.6|
4,2,7.9|
4,3,7.8|
4,4,2.3|
4,5,8|
4,6,0.02|
4,7,4.2|
5,0,5.7|
5,1,5.1|
5,2,0.25|
5,3,7.9|
5,4,8|
5,5,6.7|
5,6,8.4|
5,7,4.9|
6,0,9.3|
6,1,5.3|
6,2,9.3|
6,3,9.7|
6,4,3.6|
6,5,9.2|
6,6,2.7|
6,7,2.5|
7,0,8.5|
7,1,7.7|
7,2,0.57|
7,3,4|
7,4,4.4|
7,5,8.9|
7,6,2.9|
7,7,2.2|
];
constraint_x16_x12=[
0,0,0.38|
0,1,2.7|
0,2,0.22|
0,3,8.9|
0,4,8.1|
0,5,2|
0,6,7.9|
0,7,0.53|
1,0,4.2|
1,1,4.9|
1,2,9.9|
1,3,0.55|
1,4,5.5|
1,5,3.1|
1,6,2.2|
1,7,7.7|
2,0,6.1|
2,1,4.6|
2,2,6.1|
2,3,4.2|
2,4,8.1|
2,5,0.21|
2,6,8.4|
2,7,6.8|
3,0,3.3|
3,1,5|
3,2,8.7|
3,3,5.9|
3,4,1.6|
3,5,6.6|
3,6,7.2|
3,7,5.5|
4,0,7.8|
4,1,8.9|
4,2,6.7|
4,3,8.7|
4,4,5.2|
4,5,4.5|
4,6,9|
4,7,8.3|
5,0,0.23|
5,1,0.67|
5,2,1.8|
5,3,5.5|
5,4,0.98|
5,5,2.3|
5,6,6.9|
5,7,5.1|
6,0,9.9|
6,1,5.6|
6,2,2.7|
6,3,2.2|
6,4,3.1|
6,5,9.5|
6,6,3.2|
6,7,4.6|
7,0,2.3|
7,1,4.1|
7,2,7.1|
7,3,9.5|
7,4,1.3|
7,5,8.2|
7,6,8.1|
7,7,5.5|
];
constraint_x17_x13=[
0,0,4.1|
0,1,6.8|
0,2,2.3|
0,3,7.1|
0,4,5.2|
0,5,7|
0,6,8.3|
0,7,7|
1,0,7.9|
1,1,2.9|
1,2,3.2|
1,3,5.5|
1,4,1|
1,5,5.9|
1,6,3.6|
1,7,6.1|
2,0,3.5|
2,1,2.5|
2,2,9.5|
2,3,2.6|
2,4,5.4|
2,5,8.7|
2,6,4.7|
2,7,8.6|
3,0,2.5|
3,1,9.9|
3,2,5.3|
3,3,3|
3,4,6.4|
3,5,2.8|
3,6,5|
3,7,3.1|
4,0,1.9|
4,1,9.1|
4,2,3.8|
4,3,3|
4,4,6.5|
4,5,5.9|
4,6,9.2|
4,7,4|
5,0,1.1|
5,1,7.8|
5,2,6.4|
5,3,1.2|
5,4,8.5|
5,5,7.8|
5,6,2.2|
5,7,7.5|
6,0,3.9|
6,1,3.9|
6,2,1.2|
6,3,0.13|
6,4,7.8|
6,5,1.9|
6,6,3.2|
6,7,6.4|
7,0,0.46|
7,1,0.17|
7,2,0.38|
7,3,0.66|
7,4,0.45|
7,5,0.068|
7,6,3|
7,7,4.1|
];
constraint_x18_x14=[
0,0,4.7|
0,1,6.9|
0,2,0.78|
0,3,9.8|
0,4,2.8|
0,5,6.5|
0,6,6.7|
0,7,2.6|
1,0,6.8|
1,1,6.3|
1,2,4.2|
1,3,5.2|
1,4,0.67|
1,5,4.1|
1,6,6.7|
1,7,6.8|
2,0,4.9|
2,1,3|
2,2,1.4|
2,3,4.5|
2,4,1.7|
2,5,8.4|
2,6,2.5|
2,7,2.3|
3,0,2.2|
3,1,6.1|
3,2,3.7|
3,3,4.7|
3,4,7.8|
3,5,9.8|
3,6,8.8|
3,7,8.4|
4,0,4.2|
4,1,9.5|
4,2,4.8|
4,3,1|
4,4,3.3|
4,5,2.5|
4,6,2.8|
4,7,8.3|
5,0,6.4|
5,1,2.5|
5,2,0.29|
5,3,7.6|
5,4,7.9|
5,5,5.4|
5,6,2.7|
5,7,7.2|
6,0,3.3|
6,1,5.8|
6,2,0.6|
6,3,9.8|
6,4,2.1|
6,5,1.5|
6,6,3.2|
6,7,3.9|
7,0,1.2|
7,1,3.6|
7,2,3.1|
7,3,6.7|
7,4,8.4|
7,5,7.3|
7,6,7.1|
7,7,9.1|
];
constraint_x1_y1=[
0,0,9.3|
0,1,3.9|
0,2,7.3|
0,3,7.3|
0,4,4.9|
0,5,6.8|
0,6,4.2|
0,7,7|
1,0,4.9|
1,1,1.7|
1,2,7|
1,3,5.7|
1,4,7.1|
1,5,5.2|
1,6,2.8|
1,7,8|
2,0,9.1|
2,1,5.1|
2,2,8.8|
2,3,7.9|
2,4,1.2|
2,5,2.8|
2,6,1.6|
2,7,7|
3,0,6.1|
3,1,4.8|
3,2,6.4|
3,3,5.4|
3,4,8.2|
3,5,8.7|
3,6,0.3|
3,7,6.4|
4,0,4.7|
4,1,2.3|
4,2,0.31|
4,3,5.2|
4,4,3.8|
4,5,0.69|
4,6,6.9|
4,7,0.51|
5,0,6.8|
5,1,3.8|
5,2,1.3|
5,3,8.6|
5,4,2.5|
5,5,2.4|
5,6,7.8|
5,7,9.8|
6,0,9.4|
6,1,2|
6,2,2.2|
6,3,9.2|
6,4,4.8|
6,5,4.6|
6,6,9.4|
6,7,6.3|
7,0,9.9|
7,1,0.32|
7,2,6.8|
7,3,6.6|
7,4,5.1|
7,5,8.4|
7,6,4.8|
7,7,5.4|
];
constraint_x2_y2=[
0,0,4.2|
0,1,2.7|
0,2,7.3|
0,3,6.6|
0,4,5.2|
0,5,9.7|
0,6,2.8|
0,7,0.85|
1,0,2.6|
1,1,1.7|
1,2,8.8|
1,3,5.9|
1,4,4.4|
1,5,3.4|
1,6,9.4|
1,7,6.1|
2,0,4.1|
2,1,5.3|
2,2,0.54|
2,3,5.6|
2,4,8|
2,5,7.5|
2,6,1.4|
2,7,4.3|
3,0,6.2|
3,1,1.2|
3,2,2.9|
3,3,5.8|
3,4,4.8|
3,5,2.3|
3,6,7.1|
3,7,9|
4,0,2.3|
4,1,5.7|
4,2,2.9|
4,3,4.4|
4,4,5.3|
4,5,7.5|
4,6,4.8|
4,7,2.8|
5,0,4.1|
5,1,4.6|
5,2,9.7|
5,3,7.5|
5,4,0.53|
5,5,4.9|
5,6,4.3|
5,7,4.8|
6,0,0.82|
6,1,0.31|
6,2,1.6|
6,3,5.4|
6,4,0.028|
6,5,3.8|
6,6,1.1|
6,7,5.7|
7,0,4|
7,1,5.9|
7,2,1.5|
7,3,3.4|
7,4,8.8|
7,5,3.4|
7,6,1.7|
7,7,3.5|
];
constraint_x3_y3=[
0,0,3.6|
0,1,5|
0,2,8.2|
0,3,2.2|
0,4,3|
0,5,1.6|
0,6,0.9|
0,7,3.6|
1,0,7.5|
1,1,5.1|
1,2,5.6|
1,3,9.3|
1,4,3.2|
1,5,0.2|
1,6,9.5|
1,7,7.1|
2,0,4.5|
2,1,2.7|
2,2,5.3|
2,3,1.8|
2,4,4|
2,5,5.4|
2,6,0.67|
2,7,5.2|
3,0,4.2|
3,1,5.3|
3,2,5.4|
3,3,7.6|
3,4,8.9|
3,5,9.5|
3,6,9.6|
3,7,8.4|
4,0,0.36|
4,1,7.1|
4,2,7.7|
4,3,9.5|
4,4,8.9|
4,5,8.5|
4,6,7|
4,7,6|
5,0,0.46|
5,1,8.5|
5,2,0.054|
5,3,1.2|
5,4,2|
5,5,2.8|
5,6,3.8|
5,7,8.1|
6,0,9.2|
6,1,1.6|
6,2,0.42|
6,3,1.1|
6,4,10|
6,5,1.5|
6,6,2.5|
6,7,4.9|
7,0,8.5|
7,1,3.9|
7,2,5.1|
7,3,5.8|
7,4,3.9|
7,5,6.4|
7,6,7.9|
7,7,0.51|
];
constraint_x4_y4=[
0,0,1.1|
0,1,1.5|
0,2,4.7|
0,3,9.8|
0,4,0.42|
0,5,5.8|
0,6,9.4|
0,7,9.6|
1,0,0.94|
1,1,2.8|
1,2,9.6|
1,3,7.6|
1,4,6.5|
1,5,7.1|
1,6,9.2|
1,7,7.3|
2,0,7.1|
2,1,8.1|
2,2,9.8|
2,3,3.8|
2,4,8.3|
2,5,3.8|
2,6,5.4|
2,7,8.6|
3,0,0.92|
3,1,7.1|
3,2,0.45|
3,3,0.88|
3,4,8.3|
3,5,7.9|
3,6,9.6|
3,7,1.8|
4,0,3.5|
4,1,5.5|
4,2,6.7|
4,3,9.7|
4,4,2.3|
4,5,7.9|
4,6,1.2|
4,7,0.39|
5,0,2.4|
5,1,8|
5,2,1.4|
5,3,6.8|
5,4,8.4|
5,5,1.3|
5,6,9.5|
5,7,1.8|
6,0,8.1|
6,1,8.7|
6,2,1.1|
6,3,7.7|
6,4,9.5|
6,5,6.2|
6,6,6|
6,7,4.3|
7,0,8.6|
7,1,4.7|
7,2,9.8|
7,3,8.6|
7,4,0.83|
7,5,1.9|
7,6,5.7|
7,7,1.9|
];
constraint_x5_y5=[
0,0,3.4|
0,1,6.7|
0,2,3.5|
0,3,2.8|
0,4,2.1|
0,5,7.7|
0,6,9.7|
0,7,1.8|
1,0,6|
1,1,2.1|
1,2,9|
1,3,2|
1,4,5.5|
1,5,1.6|
1,6,2.9|
1,7,5.5|
2,0,9|
2,1,4.3|
2,2,6.9|
2,3,1.7|
2,4,9.2|
2,5,4.9|
2,6,0.0006|
2,7,8.2|
3,0,7.7|
3,1,4.8|
3,2,4.7|
3,3,7.3|
3,4,3.4|
3,5,4.9|
3,6,0.61|
3,7,0.98|
4,0,6.3|
4,1,9.9|
4,2,0.64|
4,3,8|
4,4,6.7|
4,5,4.5|
4,6,7.9|
4,7,1.8|
5,0,0.44|
5,1,6.6|
5,2,9.9|
5,3,4.6|
5,4,7.5|
5,5,5.7|
5,6,4|
5,7,9.3|
6,0,9|
6,1,2.3|
6,2,10|
6,3,5|
6,4,7.3|
6,5,9.7|
6,6,6.1|
6,7,6.5|
7,0,3.4|
7,1,3.1|
7,2,5.3|
7,3,9|
7,4,1.4|
7,5,6.1|
7,6,6.2|
7,7,6.2|
];
constraint_x6_y6=[
0,0,5.3|
0,1,6.6|
0,2,6|
0,3,9.2|
0,4,9.5|
0,5,1.5|
0,6,0.87|
0,7,8.3|
1,0,7.5|
1,1,3.4|
1,2,7.4|
1,3,2.5|
1,4,7.3|
1,5,2.3|
1,6,5.9|
1,7,8.7|
2,0,6.2|
2,1,4|
2,2,8.1|
2,3,8.7|
2,4,3.7|
2,5,2.2|
2,6,5.4|
2,7,0.56|
3,0,1.3|
3,1,6.7|
3,2,8.4|
3,3,2.6|
3,4,5.5|
3,5,9.4|
3,6,7.5|
3,7,5.6|
4,0,2.7|
4,1,0.99|
4,2,4.5|
4,3,3|
4,4,2.2|
4,5,1.9|
4,6,1.9|
4,7,9|
5,0,4|
5,1,3.8|
5,2,9.9|
5,3,2.6|
5,4,7.9|
5,5,0.76|
5,6,0.69|
5,7,0.61|
6,0,9.3|
6,1,7.2|
6,2,7.2|
6,3,8.4|
6,4,5.6|
6,5,5.5|
6,6,0.39|
6,7,1.3|
7,0,1.2|
7,1,0.37|
7,2,8.1|
7,3,9.3|
7,4,0.78|
7,5,2|
7,6,5.2|
7,7,6|
];
constraint_x7_y7=[
0,0,1.4|
0,1,8.9|
0,2,1.1|
0,3,1.7|
0,4,6.7|
0,5,9.9|
0,6,0.17|
0,7,5.9|
1,0,7.6|
1,1,5.3|
1,2,8.8|
1,3,9.7|
1,4,6.4|
1,5,1.2|
1,6,2|
1,7,6.6|
2,0,4|
2,1,4.9|
2,2,0.29|
2,3,6.2|
2,4,0.64|
2,5,6.5|
2,6,9.9|
2,7,0.25|
3,0,3|
3,1,3.1|
3,2,9.2|
3,3,9.7|
3,4,1.2|
3,5,9.1|
3,6,2.6|
3,7,5.8|
4,0,3.8|
4,1,7.5|
4,2,0.53|
4,3,1.8|
4,4,4.9|
4,5,5.7|
4,6,3.5|
4,7,6|
5,0,8|
5,1,3|
5,2,2.3|
5,3,3.7|
5,4,9|
5,5,9.9|
5,6,4.7|
5,7,8.4|
6,0,7.2|
6,1,1.6|
6,2,7.8|
6,3,9.8|
6,4,9.6|
6,5,0.65|
6,6,1|
6,7,9.5|
7,0,2.3|
7,1,2.7|
7,2,6.4|
7,3,1.7|
7,4,7.1|
7,5,9.6|
7,6,4|
7,7,0.72|
];
constraint_x8_y8=[
0,0,8.7|
0,1,8.8|
0,2,9.8|
0,3,2.1|
0,4,8.5|
0,5,7|
0,6,1.5|
0,7,1.4|
1,0,1.5|
1,1,2|
1,2,8.9|
1,3,8.8|
1,4,0.82|
1,5,2.5|
1,6,6.7|
1,7,2|
2,0,1.7|
2,1,9.7|
2,2,1.9|
2,3,9.6|
2,4,9.9|
2,5,3.9|
2,6,0.51|
2,7,6.7|
3,0,2.6|
3,1,3.7|
3,2,2|
3,3,7.3|
3,4,2.6|
3,5,7.9|
3,6,6|
3,7,9|
4,0,9.3|
4,1,6.5|
4,2,6|
4,3,4.5|
4,4,3.4|
4,5,1.4|
4,6,8.3|
4,7,4.2|
5,0,0.93|
5,1,8.8|
5,2,4.5|
5,3,7.1|
5,4,7.8|
5,5,0.61|
5,6,8.7|
5,7,6.6|
6,0,9.9|
6,1,5.2|
6,2,1.7|
6,3,5.6|
6,4,6.4|
6,5,9.4|
6,6,0.93|
6,7,2.5|
7,0,3.9|
7,1,4.4|
7,2,2|
7,3,2.8|
7,4,10|
7,5,7.2|
7,6,6|
7,7,5.3|
];
initial_distribution_y1=[0.17,0.17,0.1,0.11,0.12,0.12,0.14,0.067];
initial_distribution_y2=[0.11,0.13,0.0055,0.14,0.18,0.17,0.061,0.21];
initial_distribution_y3=[0.16,0.071,0.13,0.2,0.022,0.15,0.11,0.15];
initial_distribution_y4=[0.057,0.15,0.11,0.1,0.1,0.13,0.14,0.21];
initial_distribution_y5=[0.23,0.1,0.029,0.15,0.082,0.068,0.097,0.24];
initial_distribution_y6=[0.2,0.069,0.16,0.023,0.2,0.12,0.097,0.11];
initial_distribution_y7=[0.11,0.14,0.054,0.21,0.11,0.079,0.19,0.1];
initial_distribution_y8=[0.13,0.053,0.18,0.097,0.1,0.16,0.15,0.13];
transition_y1=[
0.0081,0.18,0.11,0.18,0.15,0.039,0.17,0.16|
0.14,0.16,0.23,0.077,0.1,0.2,0.064,0.029|
0.012,0.29,0.09,0.078,0.067,0.057,0.24,0.16|
0.15,0.14,0.13,0.13,0.012,0.29,0.012,0.14|
0.18,0.13,0.19,0.22,0.023,0.16,0.043,0.047|
0.2,0.16,0.2,0.17,0.065,0.059,0.028,0.13|
0.22,0.087,0.081,0.15,0.21,0.15,0.053,0.054|
0.12,0.025,0.12,0.076,0.21,0.21,0.099,0.14|
];
transition_y2=[
0.071,0.2,0.057,0.021,0.16,0.2,0.16,0.13|
0.15,0.026,0.22,0.17,0.055,0.13,0.16,0.088|
0.27,0.25,0.024,0.024,0.011,0.15,0.018,0.26|
0.074,0.22,0.04,0.23,0.17,0.041,0.17,0.048|
0.02,0.14,0.11,0.028,0.16,0.22,0.08,0.25|
0.15,0.045,0.18,0.12,0.17,0.14,0.078,0.12|
0.0085,0.079,0.16,0.17,0.17,0.16,0.12,0.14|
0.23,0.11,0.14,0.23,0.04,0.04,0.074,0.13|
];
transition_y3=[
0.21,0.2,0.14,0.19,0.049,0.027,0.0032,0.18|
0.11,0.1,0.12,0.14,0.11,0.14,0.13,0.15|
0.11,0.12,0.2,0.043,0.19,0.17,0.018,0.14|
0.034,0.1,0.026,0.11,0.072,0.18,0.25,0.23|
0.1,0.16,0.086,0.16,0.11,0.16,0.17,0.054|
0.12,0.19,0.045,0.19,0.15,0.15,0.0064,0.15|
0.09,0.19,0.088,0.2,0.026,0.19,0.023,0.19|
0.21,0.11,0.094,0.17,0.1,0.092,0.065,0.16|
];
transition_y4=[
0.1,0.067,0.22,0.05,0.096,0.15,0.17,0.14|
0.14,0.093,0.049,0.15,0.28,0.052,0.19,0.043|
0.12,0.075,0.035,0.19,0.099,0.11,0.18,0.2|
0.17,0.1,0.13,0.15,0.13,0.13,0.098,0.088|
0.15,0.099,0.14,0.11,0.084,0.082,0.16,0.18|
0.13,0.24,0.0038,0.02,0.16,0.26,0.11,0.081|
0.12,0.082,0.18,0.14,0.13,0.11,0.071,0.16|
0.05,0.15,0.17,0.25,0.086,0.043,0.25,0.0034|
];
transition_y5=[
0.16,0.22,0.13,0.12,0.15,0.11,0.034,0.088|
0.18,0.12,0.11,0.11,0.066,0.19,0.1,0.13|
0.18,0.15,0.18,0.13,0.11,0.1,0.0043,0.15|
0.19,0.23,0.087,0.13,0.02,0.28,0.0094,0.051|
0.23,0.11,0.11,0.056,0.068,0.05,0.16,0.21|
0.16,0.039,0.077,0.3,0.088,0.29,0.0071,0.043|
0.13,0.17,0.073,0.0033,0.18,0.097,0.18,0.17|
0.053,0.091,0.12,0.16,0.16,0.15,0.15,0.13|
];
transition_y6=[
0.081,0.14,0.24,0.19,0.043,0.039,0.12,0.14|
0.12,0.14,0.093,0.065,0.18,0.11,0.14,0.16|
0.1,0.22,0.2,0.19,0.14,0.071,0.0048,0.077|
0.22,0.041,0.053,0.081,0.2,0.15,0.06,0.2|
0.29,0.011,0.16,0.022,0.17,0.027,0.27,0.041|
0.13,0.12,0.12,0.15,0.12,0.099,0.14,0.13|
0.031,0.037,0.079,0.28,0.3,0.18,0.075,0.019|
0.068,0.067,0.14,0.024,0.1,0.27,0.041,0.29|
];
transition_y7=[
0.15,0.09,0.019,0.25,0.054,0.19,0.12,0.12|
0.13,0.089,0.12,0.13,0.1,0.16,0.11,0.17|
0.09,0.22,0.073,0.075,0.083,0.18,0.19,0.092|
0.058,0.11,0.15,0.18,0.1,0.13,0.17,0.1|
0.16,0.35,0.2,0.04,0.081,0.051,0.013,0.11|
0.19,0.16,0.067,0.0047,0.1,0.22,0.22,0.033|
0.003,0.18,0.073,0.19,0.13,0.18,0.062,0.18|
0.086,0.11,0.17,0.084,0.048,0.15,0.055,0.3|
];
transition_y8=[
0.14,0.11,0.19,0.22,0.078,0.051,0.2,0.0091|
0.26,0.11,0.25,0.17,0.025,0.051,0.011,0.13|
0.12,0.14,0.09,0.11,0.018,0.19,0.14,0.18|
0.018,0.15,0.11,0.051,0.24,0.28,0.087,0.07|
0.0064,0.11,0.21,0.25,0.14,0.016,0.031,0.23|
0.0049,0.12,0.029,0.19,0.14,0.1,0.21,0.21|
0.047,0.19,0.14,0.079,0.13,0.15,0.028,0.23|
0.13,0.12,0.16,0.085,0.13,0.021,0.13,0.23|
];
